Ordonnancement/plne/source/petit_instance/5job/5job_4.dat
data;
param nombreJob := 5;
param nombreRessource := 3;
param duree := 1 8 2 5 3 2 4 8 5 1;
param capaciteRessource := 1 4 2 10 3 19;
param besoinRessource : 1 2 3 :=
                    1   2 1 7
                    2   1 4 10
                    3   3 8 4
                    4   3 1 4
                    5   3 8 8;
end;

