Ordonnancement/plne/source/glpk_resultat/5job/5job_4.sol
Problem:    glpsolRcpsp
Rows:       308
Columns:    121 (120 integer, 120 binary)
Non-zeros:  2206
Status:     INTEGER OPTIMAL
Objective:  obj = 19 (MINimum)

   No.   Row name        Activity     Lower bound   Upper bound
------ ------------    ------------- ------------- -------------
     1 periode[1]                  8             8             = 
     2 periode[2]                  5             5             = 
     3 periode[3]                  2             2             = 
     4 periode[4]                  8             8             = 
     5 periode[5]                  1             1             = 
     6 complet[1,1]                8                           8 
     7 complet[1,2]                8                           8 
     8 complet[1,3]                8                           8 
     9 complet[1,4]                8                           8 
    10 complet[1,5]                8                           8 
    11 complet[1,6]                8                           8 
    12 complet[1,7]                8                           8 
    13 complet[1,8]               -1                           8 
    14 complet[1,9]                6                           8 
    15 complet[1,10]
                                   5                           8 
    16 complet[1,11]
                                   4                           8 
    17 complet[1,12]
                                   3                           8 
    18 complet[1,13]
                                   2                           8 
    19 complet[1,14]
                                   1                           8 
    20 complet[1,15]
                                   0                           8 
    21 complet[1,16]
                                   8                           8 
    22 complet[1,17]
                                   0                           8 
    23 complet[1,18]
                                   0                           8 
    24 complet[1,19]
                                   0                           8 
    25 complet[1,20]
                                   0                           8 
    26 complet[1,21]
                                   0                           8 
    27 complet[1,22]
                                   0                           8 
    28 complet[2,1]                5                           5 
    29 complet[2,2]                5                           5 
    30 complet[2,3]                5                           5 
    31 complet[2,4]                5                           5 
    32 complet[2,5]                5                           5 
    33 complet[2,6]                5                           5 
    34 complet[2,7]                5                           5 
    35 complet[2,8]                5                           5 
    36 complet[2,9]                5                           5 
    37 complet[2,10]
                                  -1                           5 
    38 complet[2,11]
                                   3                           5 
    39 complet[2,12]
                                   2                           5 
    40 complet[2,13]
                                   1                           5 
    41 complet[2,14]
                                   0                           5 
    42 complet[2,15]
                                   5                           5 
    43 complet[2,16]
                                   0                           5 
    44 complet[2,17]
                                   0                           5 
    45 complet[2,18]
                                   0                           5 
    46 complet[2,19]
                                   0                           5 
    47 complet[2,20]
                                   0                           5 
    48 complet[2,21]
                                   0                           5 
    49 complet[2,22]
                                   0                           5 
    50 complet[3,1]                2                           2 
    51 complet[3,2]                2                           2 
    52 complet[3,3]                2                           2 
    53 complet[3,4]                2                           2 
    54 complet[3,5]                2                           2 
    55 complet[3,6]                2                           2 
    56 complet[3,7]                2                           2 
    57 complet[3,8]                2                           2 
    58 complet[3,9]                2                           2 
    59 complet[3,10]
                                   2                           2 
    60 complet[3,11]
                                   2                           2 
    61 complet[3,12]
                                   2                           2 
    62 complet[3,13]
                                   2                           2 
    63 complet[3,14]
                                   2                           2 
    64 complet[3,15]
                                   2                           2 
    65 complet[3,16]
                                   2                           2 
    66 complet[3,17]
                                  -1                           2 
    67 complet[3,18]
                                   0                           2 
    68 complet[3,19]
                                   2                           2 
    69 complet[3,20]
                                   0                           2 
    70 complet[3,21]
                                   0                           2 
    71 complet[3,22]
                                   0                           2 
    72 complet[4,1]                6                           8 
    73 complet[4,2]                5                           8 
    74 complet[4,3]                4                           8 
    75 complet[4,4]                3                           8 
    76 complet[4,5]                2                           8 
    77 complet[4,6]                1                           8 
    78 complet[4,7]                0                           8 
    79 complet[4,8]                8                           8 
    80 complet[4,9]                0                           8 
    81 complet[4,10]
                                   0                           8 
    82 complet[4,11]
                                   0                           8 
    83 complet[4,12]
                                   0                           8 
    84 complet[4,13]
                                   0                           8 
    85 complet[4,14]
                                   0                           8 
    86 complet[4,15]
                                   0                           8 
    87 complet[4,16]
                                   0                           8 
    88 complet[4,17]
                                   0                           8 
    89 complet[4,18]
                                   0                           8 
    90 complet[4,19]
                                   0                           8 
    91 complet[4,20]
                                   0                           8 
    92 complet[4,21]
                                   0                           8 
    93 complet[4,22]
                                   0                           8 
    94 complet[5,1]                1                           1 
    95 complet[5,2]                1                           1 
    96 complet[5,3]                1                           1 
    97 complet[5,4]                1                           1 
    98 complet[5,5]                1                           1 
    99 complet[5,6]                1                           1 
   100 complet[5,7]                1                           1 
   101 complet[5,8]                1                           1 
   102 complet[5,9]                1                           1 
   103 complet[5,10]
                                   1                           1 
   104 complet[5,11]
                                   1                           1 
   105 complet[5,12]
                                   1                           1 
   106 complet[5,13]
                                   1                           1 
   107 complet[5,14]
                                   1                           1 
   108 complet[5,15]
                                   1                           1 
   109 complet[5,16]
                                  -1                           1 
   110 complet[5,17]
                                   1                           1 
   111 complet[5,18]
                                   0                           1 
   112 complet[5,19]
                                   0                           1 
   113 complet[5,20]
                                   0                           1 
   114 complet[5,21]
                                   0                           1 
   115 complet[5,22]
                                   0                           1 
   116 cmax[1,1]                  19            -0               
   117 cmax[1,2]                  19            -0               
   118 cmax[1,3]                  19            -0               
   119 cmax[1,4]                  19            -0               
   120 cmax[1,5]                  19            -0               
   121 cmax[1,6]                  19            -0               
   122 cmax[1,7]                  19            -0               
   123 cmax[1,8]                  19            -0               
   124 cmax[1,9]                  10            -0               
   125 cmax[1,10]                  9            -0               
   126 cmax[1,11]                  8            -0               
   127 cmax[1,12]                  7            -0               
   128 cmax[1,13]                  6            -0               
   129 cmax[1,14]                  5            -0               
   130 cmax[1,15]                  4            -0               
   131 cmax[1,16]                  3            -0               
   132 cmax[1,17]                 19            -0               
   133 cmax[1,18]                 19            -0               
   134 cmax[1,19]                 19            -0               
   135 cmax[1,20]                 19            -0               
   136 cmax[1,21]                 19            -0               
   137 cmax[1,22]                 19            -0               
   138 cmax[1,23]                 19            -0               
   139 cmax[1,24]                 19            -0               
   140 cmax[2,1]                  19            -0               
   141 cmax[2,2]                  19            -0               
   142 cmax[2,3]                  19            -0               
   143 cmax[2,4]                  19            -0               
   144 cmax[2,5]                  19            -0               
   145 cmax[2,6]                  19            -0               
   146 cmax[2,7]                  19            -0               
   147 cmax[2,8]                  19            -0               
   148 cmax[2,9]                  19            -0               
   149 cmax[2,10]                 19            -0               
   150 cmax[2,11]                  8            -0               
   151 cmax[2,12]                  7            -0               
   152 cmax[2,13]                  6            -0               
   153 cmax[2,14]                  5            -0               
   154 cmax[2,15]                  4            -0               
   155 cmax[2,16]                 19            -0               
   156 cmax[2,17]                 19            -0               
   157 cmax[2,18]                 19            -0               
   158 cmax[2,19]                 19            -0               
   159 cmax[2,20]                 19            -0               
   160 cmax[2,21]                 19            -0               
   161 cmax[2,22]                 19            -0               
   162 cmax[2,23]                 19            -0               
   163 cmax[2,24]                 19            -0               
   164 cmax[3,1]                  19            -0               
   165 cmax[3,2]                  19            -0               
   166 cmax[3,3]                  19            -0               
   167 cmax[3,4]                  19            -0               
   168 cmax[3,5]                  19            -0               
   169 cmax[3,6]                  19            -0               
   170 cmax[3,7]                  19            -0               
   171 cmax[3,8]                  19            -0               
   172 cmax[3,9]                  19            -0               
   173 cmax[3,10]                 19            -0               
   174 cmax[3,11]                 19            -0               
   175 cmax[3,12]                 19            -0               
   176 cmax[3,13]                 19            -0               
   177 cmax[3,14]                 19            -0               
   178 cmax[3,15]                 19            -0               
   179 cmax[3,16]                 19            -0               
   180 cmax[3,17]                 19            -0               
   181 cmax[3,18]                  1            -0               
   182 cmax[3,19]                  0            -0               
   183 cmax[3,20]                 19            -0               
   184 cmax[3,21]                 19            -0               
   185 cmax[3,22]                 19            -0               
   186 cmax[3,23]                 19            -0               
   187 cmax[3,24]                 19            -0               
   188 cmax[4,1]                  18            -0               
   189 cmax[4,2]                  17            -0               
   190 cmax[4,3]                  16            -0               
   191 cmax[4,4]                  15            -0               
   192 cmax[4,5]                  14            -0               
   193 cmax[4,6]                  13            -0               
   194 cmax[4,7]                  12            -0               
   195 cmax[4,8]                  11            -0               
   196 cmax[4,9]                  19            -0               
   197 cmax[4,10]                 19            -0               
   198 cmax[4,11]                 19            -0               
   199 cmax[4,12]                 19            -0               
   200 cmax[4,13]                 19            -0               
   201 cmax[4,14]                 19            -0               
   202 cmax[4,15]                 19            -0               
   203 cmax[4,16]                 19            -0               
   204 cmax[4,17]                 19            -0               
   205 cmax[4,18]                 19            -0               
   206 cmax[4,19]                 19            -0               
   207 cmax[4,20]                 19            -0               
   208 cmax[4,21]                 19            -0               
   209 cmax[4,22]                 19            -0               
   210 cmax[4,23]                 19            -0               
   211 cmax[4,24]                 19            -0               
   212 cmax[5,1]                  19            -0               
   213 cmax[5,2]                  19            -0               
   214 cmax[5,3]                  19            -0               
   215 cmax[5,4]                  19            -0               
   216 cmax[5,5]                  19            -0               
   217 cmax[5,6]                  19            -0               
   218 cmax[5,7]                  19            -0               
   219 cmax[5,8]                  19            -0               
   220 cmax[5,9]                  19            -0               
   221 cmax[5,10]                 19            -0               
   222 cmax[5,11]                 19            -0               
   223 cmax[5,12]                 19            -0               
   224 cmax[5,13]                 19            -0               
   225 cmax[5,14]                 19            -0               
   226 cmax[5,15]                 19            -0               
   227 cmax[5,16]                 19            -0               
   228 cmax[5,17]                  2            -0               
   229 cmax[5,18]                 19            -0               
   230 cmax[5,19]                 19            -0               
   231 cmax[5,20]                 19            -0               
   232 cmax[5,21]                 19            -0               
   233 cmax[5,22]                 19            -0               
   234 cmax[5,23]                 19            -0               
   235 cmax[5,24]                 19            -0               
   236 ressource[1,1]
                                   3                           4 
   237 ressource[1,2]
                                   3                           4 
   238 ressource[1,3]
                                   3                           4 
   239 ressource[1,4]
                                   3                           4 
   240 ressource[1,5]
                                   3                           4 
   241 ressource[1,6]
                                   3                           4 
   242 ressource[1,7]
                                   3                           4 
   243 ressource[1,8]
                                   3                           4 
   244 ressource[1,9]
                                   2                           4 
   245 ressource[1,10]
                                   2                           4 
   246 ressource[1,11]
                                   3                           4 
   247 ressource[1,12]
                                   3                           4 
   248 ressource[1,13]
                                   3                           4 
   249 ressource[1,14]
                                   3                           4 
   250 ressource[1,15]
                                   3                           4 
   251 ressource[1,16]
                                   2                           4 
   252 ressource[1,17]
                                   3                           4 
   253 ressource[1,18]
                                   3                           4 
   254 ressource[1,19]
                                   3                           4 
   255 ressource[1,20]
                                   0                           4 
   256 ressource[1,21]
                                   0                           4 
   257 ressource[1,22]
                                   0                           4 
   258 ressource[1,23]
                                   0                           4 
   259 ressource[1,24]
                                   0                           4 
   260 ressource[2,1]
                                   1                          10 
   261 ressource[2,2]
                                   1                          10 
   262 ressource[2,3]
                                   1                          10 
   263 ressource[2,4]
                                   1                          10 
   264 ressource[2,5]
                                   1                          10 
   265 ressource[2,6]
                                   1                          10 
   266 ressource[2,7]
                                   1                          10 
   267 ressource[2,8]
                                   1                          10 
   268 ressource[2,9]
                                   1                          10 
   269 ressource[2,10]
                                   1                          10 
   270 ressource[2,11]
                                   5                          10 
   271 ressource[2,12]
                                   5                          10 
   272 ressource[2,13]
                                   5                          10 
   273 ressource[2,14]
                                   5                          10 
   274 ressource[2,15]
                                   5                          10 
   275 ressource[2,16]
                                   1                          10 
   276 ressource[2,17]
                                   8                          10 
   277 ressource[2,18]
                                   8                          10 
   278 ressource[2,19]
                                   8                          10 
   279 ressource[2,20]
                                   0                          10 
   280 ressource[2,21]
                                   0                          10 
   281 ressource[2,22]
                                   0                          10 
   282 ressource[2,23]
                                   0                          10 
   283 ressource[2,24]
                                   0                          10 
   284 ressource[3,1]
                                   4                          19 
   285 ressource[3,2]
                                   4                          19 
   286 ressource[3,3]
                                   4                          19 
   287 ressource[3,4]
                                   4                          19 
   288 ressource[3,5]
                                   4                          19 
   289 ressource[3,6]
                                   4                          19 
   290 ressource[3,7]
                                   4                          19 
   291 ressource[3,8]
                                   4                          19 
   292 ressource[3,9]
                                   7                          19 
   293 ressource[3,10]
                                   7                          19 
   294 ressource[3,11]
                                  17                          19 
   295 ressource[3,12]
                                  17                          19 
   296 ressource[3,13]
                                  17                          19 
   297 ressource[3,14]
                                  17                          19 
   298 ressource[3,15]
                                  17                          19 
   299 ressource[3,16]
                                   7                          19 
   300 ressource[3,17]
                                   8                          19 
   301 ressource[3,18]
                                   4                          19 
   302 ressource[3,19]
                                   4                          19 
   303 ressource[3,20]
                                   0                          19 
   304 ressource[3,21]
                                   0                          19 
   305 ressource[3,22]
                                   0                          19 
   306 ressource[3,23]
                                   0                          19 
   307 ressource[3,24]
                                   0                          19 
   308 obj                        19                             

   No. Column name       Activity     Lower bound   Upper bound
------ ------------    ------------- ------------- -------------
     1 x[1,1]       *              0             0             1 
     2 x[1,2]       *              0             0             1 
     3 x[1,3]       *              0             0             1 
     4 x[1,4]       *              0             0             1 
     5 x[1,5]       *              0             0             1 
     6 x[1,6]       *              0             0             1 
     7 x[1,7]       *              0             0             1 
     8 x[1,8]       *              0             0             1 
     9 x[1,9]       *              1             0             1 
    10 x[1,10]      *              1             0             1 
    11 x[1,11]      *              1             0             1 
    12 x[1,12]      *              1             0             1 
    13 x[1,13]      *              1             0             1 
    14 x[1,14]      *              1             0             1 
    15 x[1,15]      *              1             0             1 
    16 x[1,16]      *              1             0             1 
    17 x[1,17]      *              0             0             1 
    18 x[1,18]      *              0             0             1 
    19 x[1,19]      *              0             0             1 
    20 x[1,20]      *              0             0             1 
    21 x[1,21]      *              0             0             1 
    22 x[1,22]      *              0             0             1 
    23 x[1,23]      *              0             0             1 
    24 x[1,24]      *              0             0             1 
    25 x[2,1]       *              0             0             1 
    26 x[2,2]       *              0             0             1 
    27 x[2,3]       *              0             0             1 
    28 x[2,4]       *              0             0             1 
    29 x[2,5]       *              0             0             1 
    30 x[2,6]       *              0             0             1 
    31 x[2,7]       *              0             0             1 
    32 x[2,8]       *              0             0             1 
    33 x[2,9]       *              0             0             1 
    34 x[2,10]      *              0             0             1 
    35 x[2,11]      *              1             0             1 
    36 x[2,12]      *              1             0             1 
    37 x[2,13]      *              1             0             1 
    38 x[2,14]      *              1             0             1 
    39 x[2,15]      *              1             0             1 
    40 x[2,16]      *              0             0             1 
    41 x[2,17]      *              0             0             1 
    42 x[2,18]      *              0             0             1 
    43 x[2,19]      *              0             0             1 
    44 x[2,20]      *              0             0             1 
    45 x[2,21]      *              0             0             1 
    46 x[2,22]      *              0             0             1 
    47 x[2,23]      *              0             0             1 
    48 x[2,24]      *              0             0             1 
    49 x[3,1]       *              0             0             1 
    50 x[3,2]       *              0             0             1 
    51 x[3,3]       *              0             0             1 
    52 x[3,4]       *              0             0             1 
    53 x[3,5]       *              0             0             1 
    54 x[3,6]       *              0             0             1 
    55 x[3,7]       *              0             0             1 
    56 x[3,8]       *              0             0             1 
    57 x[3,9]       *              0             0             1 
    58 x[3,10]      *              0             0             1 
    59 x[3,11]      *              0             0             1 
    60 x[3,12]      *              0             0             1 
    61 x[3,13]      *              0             0             1 
    62 x[3,14]      *              0             0             1 
    63 x[3,15]      *              0             0             1 
    64 x[3,16]      *              0             0             1 
    65 x[3,17]      *              0             0             1 
    66 x[3,18]      *              1             0             1 
    67 x[3,19]      *              1             0             1 
    68 x[3,20]      *              0             0             1 
    69 x[3,21]      *              0             0             1 
    70 x[3,22]      *              0             0             1 
    71 x[3,23]      *              0             0             1 
    72 x[3,24]      *              0             0             1 
    73 x[4,1]       *              1             0             1 
    74 x[4,2]       *              1             0             1 
    75 x[4,3]       *              1             0             1 
    76 x[4,4]       *              1             0             1 
    77 x[4,5]       *              1             0             1 
    78 x[4,6]       *              1             0             1 
    79 x[4,7]       *              1             0             1 
    80 x[4,8]       *              1             0             1 
    81 x[4,9]       *              0             0             1 
    82 x[4,10]      *              0             0             1 
    83 x[4,11]      *              0             0             1 
    84 x[4,12]      *              0             0             1 
    85 x[4,13]      *              0             0             1 
    86 x[4,14]      *              0             0             1 
    87 x[4,15]      *              0             0             1 
    88 x[4,16]      *              0             0             1 
    89 x[4,17]      *              0             0             1 
    90 x[4,18]      *              0             0             1 
    91 x[4,19]      *              0             0             1 
    92 x[4,20]      *              0             0             1 
    93 x[4,21]      *              0             0             1 
    94 x[4,22]      *              0             0             1 
    95 x[4,23]      *              0             0             1 
    96 x[4,24]      *              0             0             1 
    97 x[5,1]       *              0             0             1 
    98 x[5,2]       *              0             0             1 
    99 x[5,3]       *              0             0             1 
   100 x[5,4]       *              0             0             1 
   101 x[5,5]       *              0             0             1 
   102 x[5,6]       *              0             0             1 
   103 x[5,7]       *              0             0             1 
   104 x[5,8]       *              0             0             1 
   105 x[5,9]       *              0             0             1 
   106 x[5,10]      *              0             0             1 
   107 x[5,11]      *              0             0             1 
   108 x[5,12]      *              0             0             1 
   109 x[5,13]      *              0             0             1 
   110 x[5,14]      *              0             0             1 
   111 x[5,15]      *              0             0             1 
   112 x[5,16]      *              0             0             1 
   113 x[5,17]      *              1             0             1 
   114 x[5,18]      *              0             0             1 
   115 x[5,19]      *              0             0             1 
   116 x[5,20]      *              0             0             1 
   117 x[5,21]      *              0             0             1 
   118 x[5,22]      *              0             0             1 
   119 x[5,23]      *              0             0             1 
   120 x[5,24]      *              0             0             1 
   121 z                          19                             

Integer feasibility conditions:

KKT.PE: max.abs.err = 0.00e+00 on row 0
        max.rel.err = 0.00e+00 on row 0
        High quality

KKT.PB: max.abs.err = 0.00e+00 on row 0
        max.rel.err = 0.00e+00 on row 0
        High quality

End of output
